n = 100;
capacity = 100;
size = [80, 80, 79, 79, 79, 78, 77, 74, 74, 73, 73, 72, 72, 70, 70, 69, 69, 69, 68, 67, 66, 66, 65, 65, 64, 64, 64, 64, 63, 63, 62, 62, 62, 62, 61, 61, 58, 57, 55, 55, 54, 54, 53, 53, 53, 53, 52, 52, 52, 51, 51, 51, 50, 50, 50, 50, 49, 48, 46, 45, 45, 44, 44, 43, 42, 41, 40, 39, 39, 38, 38, 37, 37, 36, 36, 35, 35, 33, 33, 33, 33, 31, 30, 30, 29, 29, 29, 26, 26, 25, 24, 24, 23, 23, 23, 21, 21, 21, 20, 20];
